; Options: -in -smt2
(set-option :produce-unsat-assumptions true)

(declare-fun start!2979 () Bool)

(assert start!2979)

(declare-fun b_free!73 () Bool)

(declare-fun b_next!73 () Bool)

(assert (=> start!2979 (= b_free!73 (not b_next!73))))

(declare-fun tp!110 () Bool)

(declare-fun b_and!655 () Bool)

(assert (=> start!2979 (= tp!110 b_and!655)))

(declare-fun b!16826 () Bool)

(declare-fun e!9179 () Bool)

(declare-datatypes ((array!1413 0))(
  ( (array!1414 (arr!625 (Array (_ BitVec 32) (_ FloatingPoint 11 53))) (size!625 (_ BitVec 32))) )
))
(declare-fun a!12 () array!1413)

(assert (=> b!16826 (= e!9179 (bvsge #b00000000000000000000000000001110 (size!625 a!12)))))

(declare-fun b!16827 () Bool)

(declare-fun res!13422 () Bool)

(assert (=> b!16827 (=> (not res!13422) (not e!9179))))

(declare-fun P!5 () Int)

(declare-fun dynLambda!74 (Int (_ FloatingPoint 11 53)) Bool)

(assert (=> b!16827 (= res!13422 (dynLambda!74 P!5 (select (arr!625 a!12) #b00000000000000000000000000000010)))))

(declare-fun b!16828 () Bool)

(declare-fun res!13419 () Bool)

(assert (=> b!16828 (=> (not res!13419) (not e!9179))))

(assert (=> b!16828 (= res!13419 (dynLambda!74 P!5 (select (arr!625 a!12) #b00000000000000000000000000001010)))))

(declare-fun b!16829 () Bool)

(declare-fun res!13424 () Bool)

(assert (=> b!16829 (=> (not res!13424) (not e!9179))))

(assert (=> b!16829 (= res!13424 (dynLambda!74 P!5 (select (arr!625 a!12) #b00000000000000000000000000000111)))))

(declare-fun b!16830 () Bool)

(declare-fun res!13426 () Bool)

(assert (=> b!16830 (=> (not res!13426) (not e!9179))))

(assert (=> b!16830 (= res!13426 (dynLambda!74 P!5 (select (arr!625 a!12) #b00000000000000000000000000000110)))))

(declare-fun b!16831 () Bool)

(declare-fun res!13423 () Bool)

(assert (=> b!16831 (=> (not res!13423) (not e!9179))))

(assert (=> b!16831 (= res!13423 (dynLambda!74 P!5 (select (arr!625 a!12) #b00000000000000000000000000001101)))))

(declare-fun b!16832 () Bool)

(declare-fun res!13415 () Bool)

(assert (=> b!16832 (=> (not res!13415) (not e!9179))))

(assert (=> b!16832 (= res!13415 (dynLambda!74 P!5 (select (arr!625 a!12) #b00000000000000000000000000001011)))))

(declare-fun res!13427 () Bool)

(assert (=> start!2979 (=> (not res!13427) (not e!9179))))

(assert (=> start!2979 (= res!13427 (= (size!625 a!12) #b00000000000000000000000000010100))))

(assert (=> start!2979 e!9179))

(declare-fun array_inv!573 (array!1413) Bool)

(assert (=> start!2979 (array_inv!573 a!12)))

(assert (=> start!2979 tp!110))

(declare-fun b!16833 () Bool)

(declare-fun res!13428 () Bool)

(assert (=> b!16833 (=> (not res!13428) (not e!9179))))

(assert (=> b!16833 (= res!13428 (dynLambda!74 P!5 (select (arr!625 a!12) #b00000000000000000000000000001000)))))

(declare-fun b!16834 () Bool)

(declare-fun res!13425 () Bool)

(assert (=> b!16834 (=> (not res!13425) (not e!9179))))

(assert (=> b!16834 (= res!13425 (dynLambda!74 P!5 (select (arr!625 a!12) #b00000000000000000000000000000000)))))

(declare-fun b!16835 () Bool)

(declare-fun res!13418 () Bool)

(assert (=> b!16835 (=> (not res!13418) (not e!9179))))

(assert (=> b!16835 (= res!13418 (dynLambda!74 P!5 (select (arr!625 a!12) #b00000000000000000000000000000001)))))

(declare-fun b!16836 () Bool)

(declare-fun res!13416 () Bool)

(assert (=> b!16836 (=> (not res!13416) (not e!9179))))

(assert (=> b!16836 (= res!13416 (dynLambda!74 P!5 (select (arr!625 a!12) #b00000000000000000000000000000101)))))

(declare-fun b!16837 () Bool)

(declare-fun res!13417 () Bool)

(assert (=> b!16837 (=> (not res!13417) (not e!9179))))

(assert (=> b!16837 (= res!13417 (dynLambda!74 P!5 (select (arr!625 a!12) #b00000000000000000000000000001100)))))

(declare-fun b!16838 () Bool)

(declare-fun res!13421 () Bool)

(assert (=> b!16838 (=> (not res!13421) (not e!9179))))

(assert (=> b!16838 (= res!13421 (dynLambda!74 P!5 (select (arr!625 a!12) #b00000000000000000000000000000100)))))

(declare-fun b!16839 () Bool)

(declare-fun res!13420 () Bool)

(assert (=> b!16839 (=> (not res!13420) (not e!9179))))

(assert (=> b!16839 (= res!13420 (dynLambda!74 P!5 (select (arr!625 a!12) #b00000000000000000000000000001001)))))

(declare-fun b!16840 () Bool)

(declare-fun res!13414 () Bool)

(assert (=> b!16840 (=> (not res!13414) (not e!9179))))

(assert (=> b!16840 (= res!13414 (dynLambda!74 P!5 (select (arr!625 a!12) #b00000000000000000000000000000011)))))

(assert (= (and start!2979 res!13427) b!16834))

(assert (= (and b!16834 res!13425) b!16835))

(assert (= (and b!16835 res!13418) b!16827))

(assert (= (and b!16827 res!13422) b!16840))

(assert (= (and b!16840 res!13414) b!16838))

(assert (= (and b!16838 res!13421) b!16836))

(assert (= (and b!16836 res!13416) b!16830))

(assert (= (and b!16830 res!13426) b!16829))

(assert (= (and b!16829 res!13424) b!16833))

(assert (= (and b!16833 res!13428) b!16839))

(assert (= (and b!16839 res!13420) b!16828))

(assert (= (and b!16828 res!13419) b!16832))

(assert (= (and b!16832 res!13415) b!16837))

(assert (= (and b!16837 res!13417) b!16831))

(assert (= (and b!16831 res!13423) b!16826))

(declare-fun b_lambda!5883 () Bool)

(assert (=> (not b_lambda!5883) (not b!16839)))

(declare-fun t!773 () Bool)

(declare-fun tb!583 () Bool)

(assert (=> (and start!2979 (= P!5 P!5) t!773) tb!583))

(declare-fun result!583 () Bool)

(assert (=> tb!583 (= result!583 true)))

(assert (=> b!16839 t!773))

(declare-fun b_and!657 () Bool)

(assert (= b_and!655 (and (=> t!773 result!583) b_and!657)))

(declare-fun b_lambda!5885 () Bool)

(assert (=> (not b_lambda!5885) (not b!16829)))

(declare-fun t!775 () Bool)

(declare-fun tb!585 () Bool)

(assert (=> (and start!2979 (= P!5 P!5) t!775) tb!585))

(declare-fun result!585 () Bool)

(assert (=> tb!585 (= result!585 true)))

(assert (=> b!16829 t!775))

(declare-fun b_and!659 () Bool)

(assert (= b_and!657 (and (=> t!775 result!585) b_and!659)))

(declare-fun b_lambda!5887 () Bool)

(assert (=> (not b_lambda!5887) (not b!16832)))

(declare-fun t!777 () Bool)

(declare-fun tb!587 () Bool)

(assert (=> (and start!2979 (= P!5 P!5) t!777) tb!587))

(declare-fun result!587 () Bool)

(assert (=> tb!587 (= result!587 true)))

(assert (=> b!16832 t!777))

(declare-fun b_and!661 () Bool)

(assert (= b_and!659 (and (=> t!777 result!587) b_and!661)))

(declare-fun b_lambda!5889 () Bool)

(assert (=> (not b_lambda!5889) (not b!16833)))

(declare-fun t!779 () Bool)

(declare-fun tb!589 () Bool)

(assert (=> (and start!2979 (= P!5 P!5) t!779) tb!589))

(declare-fun result!589 () Bool)

(assert (=> tb!589 (= result!589 true)))

(assert (=> b!16833 t!779))

(declare-fun b_and!663 () Bool)

(assert (= b_and!661 (and (=> t!779 result!589) b_and!663)))

(declare-fun b_lambda!5891 () Bool)

(assert (=> (not b_lambda!5891) (not b!16840)))

(declare-fun t!781 () Bool)

(declare-fun tb!591 () Bool)

(assert (=> (and start!2979 (= P!5 P!5) t!781) tb!591))

(declare-fun result!591 () Bool)

(assert (=> tb!591 (= result!591 true)))

(assert (=> b!16840 t!781))

(declare-fun b_and!665 () Bool)

(assert (= b_and!663 (and (=> t!781 result!591) b_and!665)))

(declare-fun b_lambda!5893 () Bool)

(assert (=> (not b_lambda!5893) (not b!16838)))

(declare-fun t!783 () Bool)

(declare-fun tb!593 () Bool)

(assert (=> (and start!2979 (= P!5 P!5) t!783) tb!593))

(declare-fun result!593 () Bool)

(assert (=> tb!593 (= result!593 true)))

(assert (=> b!16838 t!783))

(declare-fun b_and!667 () Bool)

(assert (= b_and!665 (and (=> t!783 result!593) b_and!667)))

(declare-fun b_lambda!5895 () Bool)

(assert (=> (not b_lambda!5895) (not b!16835)))

(declare-fun t!785 () Bool)

(declare-fun tb!595 () Bool)

(assert (=> (and start!2979 (= P!5 P!5) t!785) tb!595))

(declare-fun result!595 () Bool)

(assert (=> tb!595 (= result!595 true)))

(assert (=> b!16835 t!785))

(declare-fun b_and!669 () Bool)

(assert (= b_and!667 (and (=> t!785 result!595) b_and!669)))

(declare-fun b_lambda!5897 () Bool)

(assert (=> (not b_lambda!5897) (not b!16828)))

(declare-fun t!787 () Bool)

(declare-fun tb!597 () Bool)

(assert (=> (and start!2979 (= P!5 P!5) t!787) tb!597))

(declare-fun result!597 () Bool)

(assert (=> tb!597 (= result!597 true)))

(assert (=> b!16828 t!787))

(declare-fun b_and!671 () Bool)

(assert (= b_and!669 (and (=> t!787 result!597) b_and!671)))

(declare-fun b_lambda!5899 () Bool)

(assert (=> (not b_lambda!5899) (not b!16834)))

(declare-fun t!789 () Bool)

(declare-fun tb!599 () Bool)

(assert (=> (and start!2979 (= P!5 P!5) t!789) tb!599))

(declare-fun result!599 () Bool)

(assert (=> tb!599 (= result!599 true)))

(assert (=> b!16834 t!789))

(declare-fun b_and!673 () Bool)

(assert (= b_and!671 (and (=> t!789 result!599) b_and!673)))

(declare-fun b_lambda!5901 () Bool)

(assert (=> (not b_lambda!5901) (not b!16830)))

(declare-fun t!791 () Bool)

(declare-fun tb!601 () Bool)

(assert (=> (and start!2979 (= P!5 P!5) t!791) tb!601))

(declare-fun result!601 () Bool)

(assert (=> tb!601 (= result!601 true)))

(assert (=> b!16830 t!791))

(declare-fun b_and!675 () Bool)

(assert (= b_and!673 (and (=> t!791 result!601) b_and!675)))

(declare-fun b_lambda!5903 () Bool)

(assert (=> (not b_lambda!5903) (not b!16836)))

(declare-fun t!793 () Bool)

(declare-fun tb!603 () Bool)

(assert (=> (and start!2979 (= P!5 P!5) t!793) tb!603))

(declare-fun result!603 () Bool)

(assert (=> tb!603 (= result!603 true)))

(assert (=> b!16836 t!793))

(declare-fun b_and!677 () Bool)

(assert (= b_and!675 (and (=> t!793 result!603) b_and!677)))

(declare-fun b_lambda!5905 () Bool)

(assert (=> (not b_lambda!5905) (not b!16827)))

(declare-fun t!795 () Bool)

(declare-fun tb!605 () Bool)

(assert (=> (and start!2979 (= P!5 P!5) t!795) tb!605))

(declare-fun result!605 () Bool)

(assert (=> tb!605 (= result!605 true)))

(assert (=> b!16827 t!795))

(declare-fun b_and!679 () Bool)

(assert (= b_and!677 (and (=> t!795 result!605) b_and!679)))

(declare-fun b_lambda!5907 () Bool)

(assert (=> (not b_lambda!5907) (not b!16831)))

(declare-fun t!797 () Bool)

(declare-fun tb!607 () Bool)

(assert (=> (and start!2979 (= P!5 P!5) t!797) tb!607))

(declare-fun result!607 () Bool)

(assert (=> tb!607 (= result!607 true)))

(assert (=> b!16831 t!797))

(declare-fun b_and!681 () Bool)

(assert (= b_and!679 (and (=> t!797 result!607) b_and!681)))

(declare-fun b_lambda!5909 () Bool)

(assert (=> (not b_lambda!5909) (not b!16837)))

(declare-fun t!799 () Bool)

(declare-fun tb!609 () Bool)

(assert (=> (and start!2979 (= P!5 P!5) t!799) tb!609))

(declare-fun result!609 () Bool)

(assert (=> tb!609 (= result!609 true)))

(assert (=> b!16837 t!799))

(declare-fun b_and!683 () Bool)

(assert (= b_and!681 (and (=> t!799 result!609) b_and!683)))

(declare-fun m!23389 () Bool)

(assert (=> b!16838 m!23389))

(assert (=> b!16838 m!23389))

(declare-fun m!23391 () Bool)

(assert (=> b!16838 m!23391))

(declare-fun m!23393 () Bool)

(assert (=> b!16836 m!23393))

(assert (=> b!16836 m!23393))

(declare-fun m!23395 () Bool)

(assert (=> b!16836 m!23395))

(declare-fun m!23397 () Bool)

(assert (=> b!16827 m!23397))

(assert (=> b!16827 m!23397))

(declare-fun m!23399 () Bool)

(assert (=> b!16827 m!23399))

(declare-fun m!23401 () Bool)

(assert (=> b!16837 m!23401))

(assert (=> b!16837 m!23401))

(declare-fun m!23403 () Bool)

(assert (=> b!16837 m!23403))

(declare-fun m!23405 () Bool)

(assert (=> start!2979 m!23405))

(declare-fun m!23407 () Bool)

(assert (=> b!16831 m!23407))

(assert (=> b!16831 m!23407))

(declare-fun m!23409 () Bool)

(assert (=> b!16831 m!23409))

(declare-fun m!23411 () Bool)

(assert (=> b!16835 m!23411))

(assert (=> b!16835 m!23411))

(declare-fun m!23413 () Bool)

(assert (=> b!16835 m!23413))

(declare-fun m!23415 () Bool)

(assert (=> b!16834 m!23415))

(assert (=> b!16834 m!23415))

(declare-fun m!23417 () Bool)

(assert (=> b!16834 m!23417))

(declare-fun m!23419 () Bool)

(assert (=> b!16829 m!23419))

(assert (=> b!16829 m!23419))

(declare-fun m!23421 () Bool)

(assert (=> b!16829 m!23421))

(declare-fun m!23423 () Bool)

(assert (=> b!16833 m!23423))

(assert (=> b!16833 m!23423))

(declare-fun m!23425 () Bool)

(assert (=> b!16833 m!23425))

(declare-fun m!23427 () Bool)

(assert (=> b!16832 m!23427))

(assert (=> b!16832 m!23427))

(declare-fun m!23429 () Bool)

(assert (=> b!16832 m!23429))

(declare-fun m!23431 () Bool)

(assert (=> b!16830 m!23431))

(assert (=> b!16830 m!23431))

(declare-fun m!23433 () Bool)

(assert (=> b!16830 m!23433))

(declare-fun m!23435 () Bool)

(assert (=> b!16840 m!23435))

(assert (=> b!16840 m!23435))

(declare-fun m!23437 () Bool)

(assert (=> b!16840 m!23437))

(declare-fun m!23439 () Bool)

(assert (=> b!16828 m!23439))

(assert (=> b!16828 m!23439))

(declare-fun m!23441 () Bool)

(assert (=> b!16828 m!23441))

(declare-fun m!23443 () Bool)

(assert (=> b!16839 m!23443))

(assert (=> b!16839 m!23443))

(declare-fun m!23445 () Bool)

(assert (=> b!16839 m!23445))

(check-sat (not start!2979) (not b_lambda!5885) (not b_lambda!5901) (not b_lambda!5895) (not b_lambda!5893) (not b_lambda!5887) (not b_lambda!5907) (not b_lambda!5897) (not b_lambda!5899) (not b_lambda!5883) (not b_lambda!5889) b_and!683 (not b_lambda!5891) (not b_next!73) (not b_lambda!5903) (not b_lambda!5909) (not b_lambda!5905))
(check-sat b_and!683 (not b_next!73))
